Route #1: 98 56 54 121 73 120 78 92 41 80 58 35 20
Route #2: 88 70 74 50 123 27 31 97 13 10 109 110 45
Route #3: 62 4 23 26 9 112 22 108 94 69 38 131 34 115
Route #4: 124 79 55 18 1 21 103 28 63 104 81 89 91
Route #5: 111 105 46 43 82 106 77 130 127 93 132 107 133 64 75
Route #6: 76 122 138 136 86 33 135 14 102 100 67 42 59 60
Route #7: 83 68 116 101 128 119 47 11 17 37 40 134 71 3
Route #8: 7 30 84 57 8 15 44 72 117 49 53 129 2 99 29
Route #9: 51 39 48 61 6 5 96 113 90 12 66 19 65
Route #10: 95 126 52 87 36 125 25 137 114 24 85 118 32 16
Cost 14670
